OBJ 32303746.0
5 21
21 22
21 24
13 23
23 22
23 17
22 14
24 1
24 19
1 9
14 2
2 25
25 26
26 27
26 6
27 15
6 29
29 30
29 20
30 18
20 32
32 33
32 36
16 34
34 7
34 35
33 11
36 10
36 37
37 12
35 3
35 8
3 10
8 4
